NAME : a280
COMMENT : Tour length 3407
TYPE : TOUR
DIMENSION : 280
TOUR_SECTION
1
5
6
9
7
8
10
11
12
13
15
270
269
268
136
135
134
131
130
21
20
19
132
133
18
17
16
271
272
273
274
275
276
277
4
280
3
279
278
248
249
256
255
252
209
208
253
254
257
258
259
260
261
262
263
264
265
148
141
140
266
267
137
138
139
149
150
178
179
180
175
160
159
158
157
119
120
121
122
123
124
46
47
48
49
50
51
52
53
54
55
69
68
58
57
56
45
44
59
63
62
116
86
92
91
90
109
89
79
80
81
82
83
88
112
111
110
108
172
171
170
169
168
167
166
165
164
163
162
161
174
173
107
106
105
104
103
102
101
100
99
96
97
98
93
94
95
78
77
76
75
74
73
72
71
70
67
66
64
65
85
84
87
113
114
115
117
118
61
60
43
42
41
40
39
38
37
36
35
34
33
32
31
30
125
126
127
128
129
154
155
153
156
152
151
177
176
181
182
183
184
185
187
188
189
190
191
192
193
201
196
195
194
197
198
199
145
146
147
142
143
144
200
202
203
204
205
215
214
211
210
207
212
213
216
221
220
217
218
219
222
223
224
225
226
227
228
229
230
251
250
247
246
231
238
239
240
245
244
243
242
2
241
237
232
233
234
235
236
206
14
24
23
25
22
26
27
28
29
186
1
-1
EOF